
Gurobi 11.0.3 (linux64) logging started Sun Nov 24 10:08:30 2024

Set parameter LogFile to value "/home/yihong/Coding/OR_SUC/SUC_results_bigM100000_thread4/case24_ieee_rts_theta0.5_epsilon0.025_gurobi_seed1460000_num_gen100_N_WDR100_load_scaling_factor1_proposed_T24quadra_cost.txt"
Set parameter TimeLimit to value 3600
Gurobi Optimizer version 11.0.3 build v11.0.3rc0 (linux64 - "Ubuntu 20.04.6 LTS")

CPU model: AMD EPYC 7532 32-Core Processor, instruction set [SSE2|AVX|AVX2]
Thread count: 64 physical cores, 128 logical processors, using up to 4 threads

Optimize a model with 51942 rows, 29861 columns and 708794 nonzeros
Model fingerprint: 0x37bfd00b
Model has 2400 quadratic constraints
Variable types: 27461 continuous, 2400 integer (2400 binary)
Coefficient statistics:
  Matrix range     [3e-04, 2e+03]
  QMatrix range    [2e-03, 8e-03]
  QLMatrix range   [4e-01, 6e+01]
  Objective range  [1e+00, 1e+00]
  Bounds range     [1e+00, 1e+00]
  RHS range        [1e+00, 9e+03]
Presolve removed 42113 rows and 12932 columns
Presolve time: 0.27s
Presolved: 9829 rows, 16929 columns, 62152 nonzeros
Presolved model has 2400 quadratic constraint(s)
Variable types: 14529 continuous, 2400 integer (2400 binary)

Root relaxation: objective 7.740935e+04, 8854 iterations, 0.19 seconds (0.27 work units)

    Nodes    |    Current Node    |     Objective Bounds      |     Work
 Expl Unexpl |  Obj  Depth IntInf | Incumbent    BestBd   Gap | It/Node Time

     0     0 77409.3518    0   24          - 77409.3518      -     -    0s
     0     0 408471.485    0  571          - 408471.485      -     -    0s
     0     0 473221.945    0  544          - 473221.945      -     -    1s
     0     0 685266.831    0  513          - 685266.831      -     -    1s
     0     0 685292.592    0  429          - 685292.592      -     -    1s
     0     0 685460.196    0  385          - 685460.196      -     -    1s
     0     0 685461.619    0  385          - 685461.619      -     -    1s
     0     0 685461.891    0  385          - 685461.891      -     -    1s
     0     0 685462.205    0  385          - 685462.205      -     -    1s
     0     2 685462.207    0  385          - 685462.207      -     -    2s
H  421   374                    686537.12748 685470.610  0.16%  29.6    3s
*  421   374             102    686537.12748 685470.610  0.16%  29.9    3s
   473   359 685652.945   11  385 686537.127 685475.110  0.15%  35.7    6s
   490   370 686294.293   67  371 686537.127 685491.975  0.15%  34.4   10s
   526   399 685569.403   19  271 686537.127 685501.863  0.15%  67.4   15s
H  868   494                    685822.43212 685501.863  0.05%  73.5   20s
*  868   494              89    685822.43212 685501.863  0.05%  73.5   20s

Cutting planes:
  Gomory: 7
  Implied bound: 22
  MIR: 39
  Flow cover: 11
  RLT: 13

Explored 921 nodes (90187 simplex iterations) in 20.79 seconds (23.16 work units)
Thread count was 4 (of 128 available processors)

Solution count 3: 685822 685822 686537 

Optimal solution found (tolerance 1.00e-03)
Warning: max constraint violation (2.3158e-07) exceeds tolerance
Best objective 6.858224321215e+05, best bound 6.855018633812e+05, gap 0.0467%
